(set-info :source |printed by MathSAT|)
(declare-fun |!{$(in_main#0)<N>}| () Int)
(declare-fun |!{$(in_main#0)<N>}.next| () Int)
(declare-fun |!{$(in_main#0)<a>}| () Int)
(declare-fun |!{$(in_main#0)<a>}.next| () Int)
(declare-fun |!{$(in_main#0)<i>}| () Int)
(declare-fun |!{$(in_main#0)<i>}.next| () Int)
(declare-fun |!{$(in_main#0)<x>}| () Int)
(declare-fun |!{$(in_main#0)<x>}.next| () Int)
(declare-fun |!{$(in_main#0)<a1.1>}| () (Array Int Int))
(declare-fun |!{$(in_main#0)<a1.1>}.next| () (Array Int Int))
(declare-fun |!{$(in_main#0)<a2.2>}| () (Array Int Int))
(declare-fun |!{$(in_main#0)<a2.2>}.next| () (Array Int Int))
(declare-fun |!{$(in_main#0)<$(in___VERIFIER_nondet_int#0)<h#<__VERIFIER_nondet_int.return>>>}| () Int)
(declare-fun |!{$(in_main#0)<$(in___VERIFIER_nondet_int#1)<h#<__VERIFIER_nondet_int.return>>>}| () Int)
(declare-fun |!{$(in_main#0)<$(in___VERIFIER_nondet_int#2)<h#<__VERIFIER_nondet_int.return>>>}| () Int)
(declare-fun !pc () Int)
(declare-fun !pc.next () Int)
(declare-fun |%{$(in_main#0)<i>}#1| () Int)
(declare-fun |%{$(in_main#0)<x>}#1| () Int)
(declare-fun |%{$(in_main#0)<a1.1>}#1| () (Array Int Int))
(declare-fun |%{$(in_main#0)<a2.2>}#1| () (Array Int Int))
(define-fun .def_37 () Int (! !pc :next !pc.next))
(define-fun .def_40 () Bool (! (= .def_37 2) :init true))
(define-fun .def_174 () Bool (= .def_37 29))
(define-fun .def_145 () Bool (= !pc.next 58))
(define-fun .def_177 () Bool (and .def_145 .def_174))
(define-fun .def_168 () Bool (= |!{$(in_main#0)<i>}.next| 0))
(define-fun .def_10 () Int (! |!{$(in_main#0)<a>}| :next |!{$(in_main#0)<a>}.next|))
(define-fun .def_81 () Bool (= .def_10 |!{$(in_main#0)<a>}.next|))
(define-fun .def_8 () Int (! |!{$(in_main#0)<N>}| :next |!{$(in_main#0)<N>}.next|))
(define-fun .def_79 () Bool (= .def_8 |!{$(in_main#0)<N>}.next|))
(define-fun .def_92 () Bool (and .def_79 .def_81))
(define-fun .def_169 () Bool (and .def_92 .def_168))
(define-fun .def_14 () Int (! |!{$(in_main#0)<x>}| :next |!{$(in_main#0)<x>}.next|))
(define-fun .def_85 () Bool (= .def_14 |!{$(in_main#0)<x>}.next|))
(define-fun .def_170 () Bool (and .def_85 .def_169))
(define-fun .def_16 () (Array Int Int) (! |!{$(in_main#0)<a1.1>}| :next |!{$(in_main#0)<a1.1>}.next|))
(define-fun .def_87 () Bool (= .def_16 |!{$(in_main#0)<a1.1>}.next|))
(define-fun .def_171 () Bool (and .def_87 .def_170))
(define-fun .def_18 () (Array Int Int) (! |!{$(in_main#0)<a2.2>}| :next |!{$(in_main#0)<a2.2>}.next|))
(define-fun .def_89 () Bool (= .def_18 |!{$(in_main#0)<a2.2>}.next|))
(define-fun .def_172 () Bool (and .def_89 .def_171))
(define-fun .def_152 () Bool (<= .def_8 .def_10))
(define-fun .def_173 () Bool (and .def_152 .def_172))
(define-fun .def_178 () Bool (and .def_173 .def_177))
(define-fun .def_65 () Bool (= !pc.next 29))
(define-fun .def_175 () Bool (and .def_65 .def_174))
(define-fun .def_155 () (Array Int Int) (store .def_18 .def_10 |!{$(in_main#0)<$(in___VERIFIER_nondet_int#2)<h#<__VERIFIER_nondet_int.return>>>}|))
(define-fun .def_165 () Bool (= |!{$(in_main#0)<a2.2>}.next| .def_155))
(define-fun .def_154 () (Array Int Int) (store .def_16 .def_10 |!{$(in_main#0)<$(in___VERIFIER_nondet_int#1)<h#<__VERIFIER_nondet_int.return>>>}|))
(define-fun .def_163 () Bool (= |!{$(in_main#0)<a1.1>}.next| .def_154))
(define-fun .def_157 () Int (* (- 1) |!{$(in_main#0)<a>}.next|))
(define-fun .def_158 () Int (+ .def_10 .def_157))
(define-fun .def_159 () Bool (= .def_158 (- 1)))
(define-fun .def_160 () Bool (and .def_79 .def_159))
(define-fun .def_12 () Int (! |!{$(in_main#0)<i>}| :next |!{$(in_main#0)<i>}.next|))
(define-fun .def_83 () Bool (= .def_12 |!{$(in_main#0)<i>}.next|))
(define-fun .def_161 () Bool (and .def_83 .def_160))
(define-fun .def_162 () Bool (and .def_85 .def_161))
(define-fun .def_164 () Bool (and .def_162 .def_163))
(define-fun .def_166 () Bool (and .def_164 .def_165))
(define-fun .def_153 () Bool (not .def_152))
(define-fun .def_167 () Bool (and .def_153 .def_166))
(define-fun .def_176 () Bool (and .def_167 .def_175))
(define-fun .def_179 () Bool (or .def_176 .def_178))
(define-fun .def_144 () Bool (= .def_37 58))
(define-fun .def_115 () Bool (= !pc.next 72))
(define-fun .def_148 () Bool (and .def_115 .def_144))
(define-fun .def_138 () Bool (= |!{$(in_main#0)<x>}.next| 0))
(define-fun .def_93 () Bool (and .def_83 .def_92))
(define-fun .def_139 () Bool (and .def_93 .def_138))
(define-fun .def_140 () Bool (and .def_87 .def_139))
(define-fun .def_141 () Bool (and .def_89 .def_140))
(define-fun .def_126 () Bool (<= .def_8 .def_12))
(define-fun .def_142 () Bool (and .def_126 .def_141))
(define-fun .def_149 () Bool (and .def_142 .def_148))
(define-fun .def_146 () Bool (and .def_144 .def_145))
(define-fun .def_130 () Int (* (- 1) |!{$(in_main#0)<i>}.next|))
(define-fun .def_131 () Int (+ .def_12 .def_130))
(define-fun .def_132 () Bool (= .def_131 (- 1)))
(define-fun .def_133 () Bool (and .def_92 .def_132))
(define-fun .def_134 () Bool (and .def_85 .def_133))
(define-fun .def_135 () Bool (and .def_87 .def_134))
(define-fun .def_136 () Bool (and .def_89 .def_135))
(define-fun .def_127 () Bool (not .def_126))
(define-fun .def_137 () Bool (and .def_127 .def_136))
(define-fun .def_147 () Bool (and .def_137 .def_146))
(define-fun .def_150 () Bool (or .def_147 .def_149))
(define-fun .def_119 () Bool (= !pc.next 0))
(define-fun .def_110 () Bool (= .def_37 72))
(define-fun .def_120 () Bool (and .def_110 .def_119))
(define-fun .def_68 () Bool (<= .def_8 .def_14))
(define-fun .def_103 () Bool (and .def_68 .def_79))
(define-fun .def_104 () Bool (and .def_81 .def_103))
(define-fun .def_105 () Bool (and .def_83 .def_104))
(define-fun .def_106 () Bool (and .def_85 .def_105))
(define-fun .def_107 () Bool (and .def_87 .def_106))
(define-fun .def_108 () Bool (and .def_89 .def_107))
(define-fun .def_121 () Bool (and .def_108 .def_120))
(define-fun .def_116 () Bool (and .def_110 .def_115))
(define-fun .def_95 () Int (* (- 1) |!{$(in_main#0)<x>}.next|))
(define-fun .def_96 () Int (+ .def_14 .def_95))
(define-fun .def_97 () Bool (= .def_96 (- 1)))
(define-fun .def_98 () Bool (and .def_93 .def_97))
(define-fun .def_99 () Bool (and .def_87 .def_98))
(define-fun .def_100 () Bool (and .def_89 .def_99))
(define-fun .def_71 () Int (select .def_18 .def_14))
(define-fun .def_70 () Int (select .def_16 .def_14))
(define-fun .def_72 () Bool (= .def_70 .def_71))
(define-fun .def_73 () Int (ite .def_72 1 0))
(define-fun .def_74 () Bool (= .def_73 0))
(define-fun .def_75 () Bool (not .def_74))
(define-fun .def_101 () Bool (and .def_75 .def_100))
(define-fun .def_69 () Bool (not .def_68))
(define-fun .def_102 () Bool (and .def_69 .def_101))
(define-fun .def_117 () Bool (and .def_102 .def_116))
(define-fun .def_112 () Bool (= !pc.next 92))
(define-fun .def_113 () Bool (and .def_110 .def_112))
(define-fun .def_80 () Bool (and .def_74 .def_79))
(define-fun .def_82 () Bool (and .def_80 .def_81))
(define-fun .def_84 () Bool (and .def_82 .def_83))
(define-fun .def_86 () Bool (and .def_84 .def_85))
(define-fun .def_88 () Bool (and .def_86 .def_87))
(define-fun .def_90 () Bool (and .def_88 .def_89))
(define-fun .def_91 () Bool (and .def_69 .def_90))
(define-fun .def_114 () Bool (and .def_91 .def_113))
(define-fun .def_118 () Bool (or .def_114 .def_117))
(define-fun .def_122 () Bool (or .def_118 .def_121))
(define-fun .def_66 () Bool (and .def_40 .def_65))
(define-fun .def_62 () Bool (= |!{$(in_main#0)<a2.2>}.next| |%{$(in_main#0)<a2.2>}#1|))
(define-fun .def_60 () Bool (= |!{$(in_main#0)<a1.1>}.next| |%{$(in_main#0)<a1.1>}#1|))
(define-fun .def_58 () Bool (= |!{$(in_main#0)<x>}.next| |%{$(in_main#0)<x>}#1|))
(define-fun .def_56 () Bool (= |!{$(in_main#0)<i>}.next| |%{$(in_main#0)<i>}#1|))
(define-fun .def_54 () Bool (= |!{$(in_main#0)<a>}.next| 0))
(define-fun .def_53 () Bool (= |!{$(in_main#0)<N>}.next| |!{$(in_main#0)<$(in___VERIFIER_nondet_int#0)<h#<__VERIFIER_nondet_int.return>>>}|))
(define-fun .def_55 () Bool (and .def_53 .def_54))
(define-fun .def_57 () Bool (and .def_55 .def_56))
(define-fun .def_59 () Bool (and .def_57 .def_58))
(define-fun .def_61 () Bool (and .def_59 .def_60))
(define-fun .def_63 () Bool (and .def_61 .def_62))
(define-fun .def_67 () Bool (and .def_63 .def_66))
(define-fun .def_123 () Bool (or .def_67 .def_122))
(define-fun .def_151 () Bool (or .def_123 .def_150))
(define-fun .def_180 () Bool (! (or .def_151 .def_179) :trans true))
(define-fun .def_124 () Bool (= .def_37 92))
(define-fun .def_181 () Bool (! (not .def_124) :invar-property 0 :invar-property-name ||))
(assert true)
